NAME: line_24_17
TYPE: TSP
COMMENT: srandom_24_17
DIMENSION: 24
EDGE_WEIGHT_TYPE: EUC_2D
NODE_COORD_SECTION
1 663 4828
2 3357 2393
3 4985 4083
4 1362 4456
5 1530 1523
6 1943 731
7 1664 3844
8 2302 3085
9 2187 741
10 3510 1623
11 2155 414
12 1819 4581
13 3146 1746
14 4973 2715
15 4589 1585
16 3500 2169
17 3970 1362
18 179 2048
19 2684 1656
20 994 2477
21 420 421
22 4053 2132
23 4564 3164
24 1772 2123
